NAME : cvrp-A-U-4-4.994.tour
COMMENT : Length = 994
COMMENT : Found by LKH [Keld Helsgaun] Thu May 17 22:42:37 2018
TYPE : TOUR
DIMENSION : 31
TOUR_SECTION
1
19
7
12
3
17
15
6
16
13
26
29
28
21
24
9
8
11
10
25
23
22
27
31
18
30
20
5
14
4
2
-1
EOF
